80 7 25 41 55 67 77 68 83 21 98 82 99 65 73 35 58 44 26 87 84 19 75 63 57 48 62 18 33 9 54 90 72 69 86 95 96 1 97 85 60 38 5 23 10 61 81 74 31 42 51 15 79 29 36 30 53 43 47 4 32 92 52 71 59 6 49 11 17 0 66 12 45 56 3 13 2 70 40 14 27 94 91 93 89 46 16 28 50 8 76 34 39 37 22 20 24 64 88 78 

